(set-logic QF_S)
(set-option :produce-models true)

(declare-fun temp2_23_41 () String)
(declare-fun s48 () String)
(declare-fun s41 () String)
(declare-fun temp_23_62 () String)
(declare-fun temp1_23_48 () String)
(declare-fun temp2_23_48 () String)
(declare-fun s55 () String)
(declare-fun temp1_23_55 () String)
(declare-fun temp2_23_55 () String)
(declare-fun temp1_23_41 () String)
(declare-fun s23 () String)
(declare-fun s62 () String)

(assert (= (str.len temp1_23_41) (str.len s41) ) )
(assert (= (str.len temp1_23_55) (str.len s55) ) )
(assert (not (= s55 temp1_23_55) ) )
(assert (= (str.++ temp1_23_55 temp2_23_55) s23) )
(assert (= (str.++ temp_23_62 s62) s23) )
(assert (= (str.++ temp1_23_41 temp2_23_41) s23) )
(assert (not (= s41 temp1_23_41) ) )
(assert (= (str.++ temp1_23_48 temp2_23_48) s23) )
(assert (not (= s48 temp2_23_48) ) )
(assert (= (str.len temp2_23_48) (str.len s48) ) )


(check-sat)
(get-model)
